Number of variables: 154548
Number of constraints: 105127
Constraints density: 2.2763044562367423e-05
Maximum factor: 23366.0
Minimum factor: -0.33
468.22404861450195ms cplex
5003.79753112793ms TIMEOUT_EXCEPTION glpk
5005.449295043945ms TIMEOUT_EXCEPTION lp_solve
5003.589868545532ms TIMEOUT_EXCEPTION clp
-0.0 Value of objective function EXCEPTION [cplex]
-0.0 Value of objective function EXCEPTION [lp_solve]
-0.0 Value of objective function EXCEPTION [clp]
